(set-option :produce-assignments true)
(set-logic QF_UF)
(declare-const p Bool) 
(declare-const q Bool) 
(declare-const r Bool)
(declare-const s Bool) 
(assert 
(and 
(or (not q) (not r) t) 
(or (not s) (not t) p) 
(or (not p) r (not q))
(or (not s) p (not p))
(or s r q)
(or (not p) (not s) (not r))
(or (not q) s (not r))
(or p q s)
(or (not q) s p)
))
(check-sat)
(get-model)
(exit)